p cnf 100 426
-82 15 4 0
-14 87 95 0
4 -12 -28 0
-92 84 -90 0
-1 98 21 0
98 44 -14 0
-78 -34 -6 0
49 -11 -71 0
-47 74 25 0
-38 11 30 0
47 -21 -48 0
-88 83 -10 0
21 -60 -49 0
-29 -88 42 0
5 41 -52 0
-92 41 -28 0
59 -19 -34 0
-96 75 55 0
18 66 64 0
81 21 88 0
-60 -68 33 0
-93 -15 -88 0
44 15 -38 0
-93 -34 65 0
-81 39 82 0
-21 -70 -100 0
-63 -3 -15 0
40 -31 8 0
-94 -63 9 0
85 -61 -71 0
-28 70 97 0
86 -84 48 0
29 -9 -44 0
-1 10 -91 0
43 -10 66 0
-17 93 74 0
53 25 13 0
-60 -94 7 0
-52 94 44 0
69 58 18 0
10 -57 -71 0
-2 12 97 0
28 52 8 0
-59 -37 -55 0
85 92 -63 0
75 95 70 0
62 -65 68 0
24 -9 77 0
-73 -32 75 0
75 73 -67 0
41 -31 34 0
41 -97 -10 0
13 10 -69 0
9 32 -48 0
-39 -79 -84 0
85 -14 -18 0
-20 -35 37 0
82 -34 -65 0
-12 82 55 0
17 82 -34 0
72 -2 -15 0
-70 5 48 0
-40 47 6 0
-14 -46 -100 0
-96 -20 -31 0
-53 4 -23 0
86 -95 32 0
5 -61 29 0
-30 29 4 0
9 -99 -36 0
69 -43 4 0
-34 5 -14 0
56 -78 66 0
6 -91 -56 0
93 95 -86 0
-43 80 -41 0
65 40 86 0
-17 25 -54 0
23 -79 73 0
-37 -27 56 0
-57 -87 -28 0
95 -22 -85 0
43 12 -97 0
19 4 -6 0
-10 -59 -54 0
50 -64 52 0
-97 99 -14 0
90 67 -60 0
-59 -18 -60 0
-97 -57 79 0
-71 58 21 0
-32 -82 -36 0
-36 57 10 0
70 11 18 0
28 -9 54 0
-27 -54 -50 0
98 -74 49 0
-50 -54 -69 0
29 63 35 0
87 52 93 0
-80 -69 -4 0
11 83 55 0
49 42 -28 0
36 97 54 0
70 7 -45 0
-6 97 4 0
20 31 -17 0
-60 90 -33 0
-96 92 15 0
-75 -4 40 0
-92 -26 10 0
-90 -99 39 0
-73 -6 45 0
-83 -44 2 0
-47 82 -59 0
-84 -35 79 0
56 -94 -76 0
12 36 -58 0
49 44 4 0
46 -34 -44 0
-72 2 -67 0
63 72 -98 0
58 3 12 0
85 -75 48 0
96 71 43 0
30 16 -93 0
98 -89 24 0
-76 -98 -68 0
38 30 -47 0
-36 -6 7 0
-97 -63 14 0
-57 44 -24 0
15 -9 -52 0
20 73 -39 0
-54 78 -77 0
-58 -57 39 0
-80 8 -79 0
-81 28 34 0
10 -21 1 0
-5 -30 37 0
-88 -30 -34 0
-26 -55 -15 0
19 10 -8 0
73 -37 -57 0
35 65 70 0
-56 95 42 0
-87 -74 -76 0
-35 74 -6 0
-57 36 -24 0
12 61 45 0
-21 43 -53 0
98 71 5 0
-99 52 -66 0
60 53 -7 0
81 57 98 0
37 57 -90 0
31 91 21 0
-29 -15 60 0
-92 38 66 0
-61 32 -59 0
-66 96 -18 0
54 44 -65 0
76 75 -85 0
-45 43 -71 0
-25 90 -31 0
6 -41 96 0
85 84 -20 0
-76 43 -13 0
59 -2 -93 0
10 -61 -34 0
43 87 -69 0
98 63 -70 0
37 -30 -96 0
91 13 57 0
42 8 38 0
-53 73 88 0
49 -80 88 0
60 -82 -33 0
-60 37 -87 0
-76 -39 82 0
-39 26 50 0
-46 74 -38 0
85 -51 -36 0
7 -78 96 0
30 78 46 0
-97 -93 -99 0
81 83 -6 0
-94 17 12 0
-26 17 -70 0
-35 -22 -33 0
-38 96 44 0
-97 -29 -87 0
-72 47 -12 0
-59 48 87 0
-82 48 -14 0
72 42 -79 0
90 39 -84 0
39 -64 15 0
-59 -48 -86 0
76 96 94 0
-63 79 -53 0
-28 57 -31 0
70 83 -46 0
59 -12 -85 0
-7 -43 32 0
-98 -71 27 0
100 -19 77 0
-17 70 -33 0
-17 2 46 0
23 34 7 0
-9 -61 58 0
65 -29 -79 0
-67 39 -59 0
52 -55 88 0
11 42 -78 0
75 -71 -92 0
59 -65 78 0
-84 99 71 0
-30 53 -44 0
41 -55 -86 0
-61 9 12 0
-95 -48 -17 0
43 -86 -16 0
-55 -93 7 0
74 65 -28 0
45 72 48 0
-55 -72 -99 0
-4 78 85 0
-90 98 40 0
19 73 -85 0
-4 12 96 0
-21 -48 -40 0
11 -7 -20 0
35 -57 85 0
28 97 66 0
-87 76 63 0
77 -8 -1 0
98 33 -38 0
-23 17 -49 0
86 -46 10 0
-59 -10 -41 0
54 -38 15 0
-80 59 -89 0
32 56 -76 0
96 44 -29 0
15 -68 66 0
83 19 31 0
20 -98 -84 0
-60 97 -73 0
-73 83 -82 0
41 20 57 0
36 76 8 0
-5 8 -48 0
-12 79 -77 0
-95 -6 58 0
78 61 65 0
-44 92 11 0
-57 68 -67 0
50 -53 -100 0
83 -43 9 0
-33 -93 85 0
11 75 -85 0
90 -85 51 0
-72 -49 -83 0
95 -88 -68 0
3 47 -40 0
-63 25 29 0
-13 -65 -99 0
-85 -44 99 0
-24 -89 -99 0
-6 53 47 0
-37 97 96 0
-61 -25 48 0
99 -37 -100 0
-26 78 18 0
-48 -71 14 0
11 -98 21 0
-56 -12 -29 0
-54 7 -51 0
48 29 -4 0
43 -19 18 0
18 -98 -91 0
-3 -33 -28 0
-68 55 15 0
-31 54 82 0
64 -77 69 0
19 38 -55 0
-24 86 -11 0
70 -65 71 0
-50 48 33 0
-31 -94 -85 0
43 18 -6 0
-100 88 60 0
-18 9 92 0
-6 -26 -41 0
70 -61 33 0
100 7 84 0
-52 96 -57 0
-64 -89 -48 0
94 -55 11 0
38 -42 14 0
78 92 55 0
-94 46 -79 0
-8 10 -86 0
87 -21 -4 0
5 -17 9 0
73 5 78 0
-57 -98 10 0
-84 36 32 0
67 -50 -72 0
-28 -79 37 0
18 -10 -58 0
88 41 -86 0
-39 -21 92 0
47 66 29 0
-64 4 -47 0
-71 17 79 0
-92 -93 -62 0
-10 17 -41 0
-45 -17 -100 0
-17 56 65 0
20 -39 22 0
67 -37 -11 0
-17 81 -39 0
76 -75 -20 0
-44 73 6 0
83 99 -74 0
80 -82 4 0
-39 -62 32 0
10 89 8 0
44 -78 -19 0
-45 -52 17 0
31 60 16 0
38 -50 -79 0
42 -74 93 0
-66 60 64 0
-51 65 59 0
-7 -37 -64 0
-37 69 -2 0
94 47 98 0
-72 25 -47 0
-98 -71 -36 0
17 -13 -51 0
47 -97 -19 0
-6 -5 -18 0
20 -78 66 0
-51 -79 -95 0
-66 69 -63 0
48 43 87 0
93 89 -81 0
100 75 74 0
-68 -81 93 0
-88 -32 5 0
57 -41 54 0
-100 -79 61 0
-18 -67 27 0
49 -41 -23 0
-87 -99 93 0
62 25 -32 0
-39 -99 37 0
-62 -45 72 0
-16 -74 87 0
45 99 -19 0
45 57 84 0
-69 35 -72 0
76 -31 32 0
30 -7 13 0
-99 -18 1 0
-84 -61 62 0
-37 83 -8 0
-69 95 -93 0
-54 23 5 0
96 -38 5 0
-43 -37 59 0
18 -65 60 0
94 59 -83 0
-38 73 -87 0
52 55 66 0
-18 62 42 0
-58 97 -35 0
2 34 -84 0
60 -40 -21 0
-91 -99 -40 0
48 79 29 0
96 -78 48 0
-69 -86 -28 0
-11 68 -58 0
-15 8 -71 0
22 -42 -67 0
63 12 66 0
54 59 -73 0
93 3 51 0
10 6 -55 0
9 61 5 0
83 -94 54 0
-49 -11 88 0
-45 16 23 0
29 1 -97 0
70 55 69 0
-20 -36 25 0
-85 -54 79 0
-27 9 -13 0
7 32 -95 0
97 -100 8 0
-94 -74 -41 0
-31 -39 19 0
-36 -8 -72 0
-81 87 55 0
-83 86 49 0
20 -39 49 0
29 39 91 0
-53 54 72 0
-43 -83 11 0
93 -25 -7 0
-10 -25 98 0
-27 43 -39 0
-95 16 96 0
78 91 27 0
-37 49 60 0
66 -64 60 0
41 27 -48 0
95 -19 -3 0
54 38 -20 0
-32 -64 71 0
-63 93 -83 0
-46 22 -18 0
