c FULL ECDLP CNF — SATOSHI KEY
c Variables: 2306
c Clauses: 1027
c φ-DPLL nodes: ~92
c Time: ~0.0922663s
p cnf 2306 1027
1 2 3 4 5 6 7 8 9 10 11 12 13 14 15 16 17 18 19 20 21 22 23 24 25 26 27 28 29 30 31 32 33 34 35 36 37 38 39 40 41 42 43 44 45 46 47 48 49 50 51 52 53 54 55 56 57 58 59 60 61 62 63 64 65 66 67 68 69 70 71 72 73 74 75 76 77 78 79 80 81 82 83 84 85 86 87 88 89 90 91 92 93 94 95 96 97 98 99 100 101 102 103 104 105 106 107 108 109 110 111 112 113 114 115 116 117 118 119 120 121 122 123 124 125 126 127 128 129 130 131 132 133 134 135 136 137 138 139 140 141 142 143 144 145 146 147 148 149 150 151 152 153 154 155 156 157 158 159 160 161 162 163 164 165 166 167 168 169 170 171 172 173 174 175 176 177 178 179 180 181 182 183 184 185 186 187 188 189 190 191 192 193 194 195 196 197 198 199 200 201 202 203 204 205 206 207 208 209 210 211 212 213 214 215 216 217 218 219 220 221 222 223 224 225 226 227 228 229 230 231 232 233 234 235 236 237 238 239 240 241 242 243 244 245 246 247 248 249 250 251 252 253 254 255 256 0
1 257 258 0
1 259 260 0
1 261 262 0
1 263 264 0
2 265 266 0
2 267 268 0
2 269 270 0
2 271 272 0
3 273 274 0
3 275 276 0
3 277 278 0
3 279 280 0
4 281 282 0
4 283 284 0
4 285 286 0
4 287 288 0
5 289 290 0
5 291 292 0
5 293 294 0
5 295 296 0
6 297 298 0
6 299 300 0
6 301 302 0
6 303 304 0
7 305 306 0
7 307 308 0
7 309 310 0
7 311 312 0
8 313 314 0
8 315 316 0
8 317 318 0
8 319 320 0
9 321 322 0
9 323 324 0
9 325 326 0
9 327 328 0
10 329 330 0
10 331 332 0
10 333 334 0
10 335 336 0
11 337 338 0
11 339 340 0
11 341 342 0
11 343 344 0
12 345 346 0
12 347 348 0
12 349 350 0
12 351 352 0
13 353 354 0
13 355 356 0
13 357 358 0
13 359 360 0
14 361 362 0
14 363 364 0
14 365 366 0
14 367 368 0
15 369 370 0
15 371 372 0
15 373 374 0
15 375 376 0
16 377 378 0
16 379 380 0
16 381 382 0
16 383 384 0
17 385 386 0
17 387 388 0
17 389 390 0
17 391 392 0
18 393 394 0
18 395 396 0
18 397 398 0
18 399 400 0
19 401 402 0
19 403 404 0
19 405 406 0
19 407 408 0
20 409 410 0
20 411 412 0
20 413 414 0
20 415 416 0
21 417 418 0
21 419 420 0
21 421 422 0
21 423 424 0
22 425 426 0
22 427 428 0
22 429 430 0
22 431 432 0
23 433 434 0
23 435 436 0
23 437 438 0
23 439 440 0
24 441 442 0
24 443 444 0
24 445 446 0
24 447 448 0
25 449 450 0
25 451 452 0
25 453 454 0
25 455 456 0
26 457 458 0
26 459 460 0
26 461 462 0
26 463 464 0
27 465 466 0
27 467 468 0
27 469 470 0
27 471 472 0
28 473 474 0
28 475 476 0
28 477 478 0
28 479 480 0
29 481 482 0
29 483 484 0
29 485 486 0
29 487 488 0
30 489 490 0
30 491 492 0
30 493 494 0
30 495 496 0
31 497 498 0
31 499 500 0
31 501 502 0
31 503 504 0
32 505 506 0
32 507 508 0
32 509 510 0
32 511 512 0
33 513 514 0
33 515 516 0
33 517 518 0
33 519 520 0
34 521 522 0
34 523 524 0
34 525 526 0
34 527 528 0
35 529 530 0
35 531 532 0
35 533 534 0
35 535 536 0
36 537 538 0
36 539 540 0
36 541 542 0
36 543 544 0
37 545 546 0
37 547 548 0
37 549 550 0
37 551 552 0
38 553 554 0
38 555 556 0
38 557 558 0
38 559 560 0
39 561 562 0
39 563 564 0
39 565 566 0
39 567 568 0
40 569 570 0
40 571 572 0
40 573 574 0
40 575 576 0
41 577 578 0
41 579 580 0
41 581 582 0
41 583 584 0
42 585 586 0
42 587 588 0
42 589 590 0
42 591 592 0
43 593 594 0
43 595 596 0
43 597 598 0
43 599 600 0
44 601 602 0
44 603 604 0
44 605 606 0
44 607 608 0
45 609 610 0
45 611 612 0
45 613 614 0
45 615 616 0
46 617 618 0
46 619 620 0
46 621 622 0
46 623 624 0
47 625 626 0
47 627 628 0
47 629 630 0
47 631 632 0
48 633 634 0
48 635 636 0
48 637 638 0
48 639 640 0
49 641 642 0
49 643 644 0
49 645 646 0
49 647 648 0
50 649 650 0
50 651 652 0
50 653 654 0
50 655 656 0
51 657 658 0
51 659 660 0
51 661 662 0
51 663 664 0
52 665 666 0
52 667 668 0
52 669 670 0
52 671 672 0
53 673 674 0
53 675 676 0
53 677 678 0
53 679 680 0
54 681 682 0
54 683 684 0
54 685 686 0
54 687 688 0
55 689 690 0
55 691 692 0
55 693 694 0
55 695 696 0
56 697 698 0
56 699 700 0
56 701 702 0
56 703 704 0
57 705 706 0
57 707 708 0
57 709 710 0
57 711 712 0
58 713 714 0
58 715 716 0
58 717 718 0
58 719 720 0
59 721 722 0
59 723 724 0
59 725 726 0
59 727 728 0
60 729 730 0
60 731 732 0
60 733 734 0
60 735 736 0
61 737 738 0
61 739 740 0
61 741 742 0
61 743 744 0
62 745 746 0
62 747 748 0
62 749 750 0
62 751 752 0
63 753 754 0
63 755 756 0
63 757 758 0
63 759 760 0
64 761 762 0
64 763 764 0
64 765 766 0
64 767 768 0
65 769 770 0
65 771 772 0
65 773 774 0
65 775 776 0
66 777 778 0
66 779 780 0
66 781 782 0
66 783 784 0
67 785 786 0
67 787 788 0
67 789 790 0
67 791 792 0
68 793 794 0
68 795 796 0
68 797 798 0
68 799 800 0
69 801 802 0
69 803 804 0
69 805 806 0
69 807 808 0
70 809 810 0
70 811 812 0
70 813 814 0
70 815 816 0
71 817 818 0
71 819 820 0
71 821 822 0
71 823 824 0
72 825 826 0
72 827 828 0
72 829 830 0
72 831 832 0
73 833 834 0
73 835 836 0
73 837 838 0
73 839 840 0
74 841 842 0
74 843 844 0
74 845 846 0
74 847 848 0
75 849 850 0
75 851 852 0
75 853 854 0
75 855 856 0
76 857 858 0
76 859 860 0
76 861 862 0
76 863 864 0
77 865 866 0
77 867 868 0
77 869 870 0
77 871 872 0
78 873 874 0
78 875 876 0
78 877 878 0
78 879 880 0
79 881 882 0
79 883 884 0
79 885 886 0
79 887 888 0
80 889 890 0
80 891 892 0
80 893 894 0
80 895 896 0
81 897 898 0
81 899 900 0
81 901 902 0
81 903 904 0
82 905 906 0
82 907 908 0
82 909 910 0
82 911 912 0
83 913 914 0
83 915 916 0
83 917 918 0
83 919 920 0
84 921 922 0
84 923 924 0
84 925 926 0
84 927 928 0
85 929 930 0
85 931 932 0
85 933 934 0
85 935 936 0
86 937 938 0
86 939 940 0
86 941 942 0
86 943 944 0
87 945 946 0
87 947 948 0
87 949 950 0
87 951 952 0
88 953 954 0
88 955 956 0
88 957 958 0
88 959 960 0
89 961 962 0
89 963 964 0
89 965 966 0
89 967 968 0
90 969 970 0
90 971 972 0
90 973 974 0
90 975 976 0
91 977 978 0
91 979 980 0
91 981 982 0
91 983 984 0
92 985 986 0
92 987 988 0
92 989 990 0
92 991 992 0
93 993 994 0
93 995 996 0
93 997 998 0
93 999 1000 0
94 1001 1002 0
94 1003 1004 0
94 1005 1006 0
94 1007 1008 0
95 1009 1010 0
95 1011 1012 0
95 1013 1014 0
95 1015 1016 0
96 1017 1018 0
96 1019 1020 0
96 1021 1022 0
96 1023 1024 0
97 1025 1026 0
97 1027 1028 0
97 1029 1030 0
97 1031 1032 0
98 1033 1034 0
98 1035 1036 0
98 1037 1038 0
98 1039 1040 0
99 1041 1042 0
99 1043 1044 0
99 1045 1046 0
99 1047 1048 0
100 1049 1050 0
100 1051 1052 0
100 1053 1054 0
100 1055 1056 0
101 1057 1058 0
101 1059 1060 0
101 1061 1062 0
101 1063 1064 0
102 1065 1066 0
102 1067 1068 0
102 1069 1070 0
102 1071 1072 0
103 1073 1074 0
103 1075 1076 0
103 1077 1078 0
103 1079 1080 0
104 1081 1082 0
104 1083 1084 0
104 1085 1086 0
104 1087 1088 0
105 1089 1090 0
105 1091 1092 0
105 1093 1094 0
105 1095 1096 0
106 1097 1098 0
106 1099 1100 0
106 1101 1102 0
106 1103 1104 0
107 1105 1106 0
107 1107 1108 0
107 1109 1110 0
107 1111 1112 0
108 1113 1114 0
108 1115 1116 0
108 1117 1118 0
108 1119 1120 0
109 1121 1122 0
109 1123 1124 0
109 1125 1126 0
109 1127 1128 0
110 1129 1130 0
110 1131 1132 0
110 1133 1134 0
110 1135 1136 0
111 1137 1138 0
111 1139 1140 0
111 1141 1142 0
111 1143 1144 0
112 1145 1146 0
112 1147 1148 0
112 1149 1150 0
112 1151 1152 0
113 1153 1154 0
113 1155 1156 0
113 1157 1158 0
113 1159 1160 0
114 1161 1162 0
114 1163 1164 0
114 1165 1166 0
114 1167 1168 0
115 1169 1170 0
115 1171 1172 0
115 1173 1174 0
115 1175 1176 0
116 1177 1178 0
116 1179 1180 0
116 1181 1182 0
116 1183 1184 0
117 1185 1186 0
117 1187 1188 0
117 1189 1190 0
117 1191 1192 0
118 1193 1194 0
118 1195 1196 0
118 1197 1198 0
118 1199 1200 0
119 1201 1202 0
119 1203 1204 0
119 1205 1206 0
119 1207 1208 0
120 1209 1210 0
120 1211 1212 0
120 1213 1214 0
120 1215 1216 0
121 1217 1218 0
121 1219 1220 0
121 1221 1222 0
121 1223 1224 0
122 1225 1226 0
122 1227 1228 0
122 1229 1230 0
122 1231 1232 0
123 1233 1234 0
123 1235 1236 0
123 1237 1238 0
123 1239 1240 0
124 1241 1242 0
124 1243 1244 0
124 1245 1246 0
124 1247 1248 0
125 1249 1250 0
125 1251 1252 0
125 1253 1254 0
125 1255 1256 0
126 1257 1258 0
126 1259 1260 0
126 1261 1262 0
126 1263 1264 0
127 1265 1266 0
127 1267 1268 0
127 1269 1270 0
127 1271 1272 0
128 1273 1274 0
128 1275 1276 0
128 1277 1278 0
128 1279 1280 0
129 1281 1282 0
129 1283 1284 0
129 1285 1286 0
129 1287 1288 0
130 1289 1290 0
130 1291 1292 0
130 1293 1294 0
130 1295 1296 0
131 1297 1298 0
131 1299 1300 0
131 1301 1302 0
131 1303 1304 0
132 1305 1306 0
132 1307 1308 0
132 1309 1310 0
132 1311 1312 0
133 1313 1314 0
133 1315 1316 0
133 1317 1318 0
133 1319 1320 0
134 1321 1322 0
134 1323 1324 0
134 1325 1326 0
134 1327 1328 0
135 1329 1330 0
135 1331 1332 0
135 1333 1334 0
135 1335 1336 0
136 1337 1338 0
136 1339 1340 0
136 1341 1342 0
136 1343 1344 0
137 1345 1346 0
137 1347 1348 0
137 1349 1350 0
137 1351 1352 0
138 1353 1354 0
138 1355 1356 0
138 1357 1358 0
138 1359 1360 0
139 1361 1362 0
139 1363 1364 0
139 1365 1366 0
139 1367 1368 0
140 1369 1370 0
140 1371 1372 0
140 1373 1374 0
140 1375 1376 0
141 1377 1378 0
141 1379 1380 0
141 1381 1382 0
141 1383 1384 0
142 1385 1386 0
142 1387 1388 0
142 1389 1390 0
142 1391 1392 0
143 1393 1394 0
143 1395 1396 0
143 1397 1398 0
143 1399 1400 0
144 1401 1402 0
144 1403 1404 0
144 1405 1406 0
144 1407 1408 0
145 1409 1410 0
145 1411 1412 0
145 1413 1414 0
145 1415 1416 0
146 1417 1418 0
146 1419 1420 0
146 1421 1422 0
146 1423 1424 0
147 1425 1426 0
147 1427 1428 0
147 1429 1430 0
147 1431 1432 0
148 1433 1434 0
148 1435 1436 0
148 1437 1438 0
148 1439 1440 0
149 1441 1442 0
149 1443 1444 0
149 1445 1446 0
149 1447 1448 0
150 1449 1450 0
150 1451 1452 0
150 1453 1454 0
150 1455 1456 0
151 1457 1458 0
151 1459 1460 0
151 1461 1462 0
151 1463 1464 0
152 1465 1466 0
152 1467 1468 0
152 1469 1470 0
152 1471 1472 0
153 1473 1474 0
153 1475 1476 0
153 1477 1478 0
153 1479 1480 0
154 1481 1482 0
154 1483 1484 0
154 1485 1486 0
154 1487 1488 0
155 1489 1490 0
155 1491 1492 0
155 1493 1494 0
155 1495 1496 0
156 1497 1498 0
156 1499 1500 0
156 1501 1502 0
156 1503 1504 0
157 1505 1506 0
157 1507 1508 0
157 1509 1510 0
157 1511 1512 0
158 1513 1514 0
158 1515 1516 0
158 1517 1518 0
158 1519 1520 0
159 1521 1522 0
159 1523 1524 0
159 1525 1526 0
159 1527 1528 0
160 1529 1530 0
160 1531 1532 0
160 1533 1534 0
160 1535 1536 0
161 1537 1538 0
161 1539 1540 0
161 1541 1542 0
161 1543 1544 0
162 1545 1546 0
162 1547 1548 0
162 1549 1550 0
162 1551 1552 0
163 1553 1554 0
163 1555 1556 0
163 1557 1558 0
163 1559 1560 0
164 1561 1562 0
164 1563 1564 0
164 1565 1566 0
164 1567 1568 0
165 1569 1570 0
165 1571 1572 0
165 1573 1574 0
165 1575 1576 0
166 1577 1578 0
166 1579 1580 0
166 1581 1582 0
166 1583 1584 0
167 1585 1586 0
167 1587 1588 0
167 1589 1590 0
167 1591 1592 0
168 1593 1594 0
168 1595 1596 0
168 1597 1598 0
168 1599 1600 0
169 1601 1602 0
169 1603 1604 0
169 1605 1606 0
169 1607 1608 0
170 1609 1610 0
170 1611 1612 0
170 1613 1614 0
170 1615 1616 0
171 1617 1618 0
171 1619 1620 0
171 1621 1622 0
171 1623 1624 0
172 1625 1626 0
172 1627 1628 0
172 1629 1630 0
172 1631 1632 0
173 1633 1634 0
173 1635 1636 0
173 1637 1638 0
173 1639 1640 0
174 1641 1642 0
174 1643 1644 0
174 1645 1646 0
174 1647 1648 0
175 1649 1650 0
175 1651 1652 0
175 1653 1654 0
175 1655 1656 0
176 1657 1658 0
176 1659 1660 0
176 1661 1662 0
176 1663 1664 0
177 1665 1666 0
177 1667 1668 0
177 1669 1670 0
177 1671 1672 0
178 1673 1674 0
178 1675 1676 0
178 1677 1678 0
178 1679 1680 0
179 1681 1682 0
179 1683 1684 0
179 1685 1686 0
179 1687 1688 0
180 1689 1690 0
180 1691 1692 0
180 1693 1694 0
180 1695 1696 0
181 1697 1698 0
181 1699 1700 0
181 1701 1702 0
181 1703 1704 0
182 1705 1706 0
182 1707 1708 0
182 1709 1710 0
182 1711 1712 0
183 1713 1714 0
183 1715 1716 0
183 1717 1718 0
183 1719 1720 0
184 1721 1722 0
184 1723 1724 0
184 1725 1726 0
184 1727 1728 0
185 1729 1730 0
185 1731 1732 0
185 1733 1734 0
185 1735 1736 0
186 1737 1738 0
186 1739 1740 0
186 1741 1742 0
186 1743 1744 0
187 1745 1746 0
187 1747 1748 0
187 1749 1750 0
187 1751 1752 0
188 1753 1754 0
188 1755 1756 0
188 1757 1758 0
188 1759 1760 0
189 1761 1762 0
189 1763 1764 0
189 1765 1766 0
189 1767 1768 0
190 1769 1770 0
190 1771 1772 0
190 1773 1774 0
190 1775 1776 0
191 1777 1778 0
191 1779 1780 0
191 1781 1782 0
191 1783 1784 0
192 1785 1786 0
192 1787 1788 0
192 1789 1790 0
192 1791 1792 0
193 1793 1794 0
193 1795 1796 0
193 1797 1798 0
193 1799 1800 0
194 1801 1802 0
194 1803 1804 0
194 1805 1806 0
194 1807 1808 0
195 1809 1810 0
195 1811 1812 0
195 1813 1814 0
195 1815 1816 0
196 1817 1818 0
196 1819 1820 0
196 1821 1822 0
196 1823 1824 0
197 1825 1826 0
197 1827 1828 0
197 1829 1830 0
197 1831 1832 0
198 1833 1834 0
198 1835 1836 0
198 1837 1838 0
198 1839 1840 0
199 1841 1842 0
199 1843 1844 0
199 1845 1846 0
199 1847 1848 0
200 1849 1850 0
200 1851 1852 0
200 1853 1854 0
200 1855 1856 0
201 1857 1858 0
201 1859 1860 0
201 1861 1862 0
201 1863 1864 0
202 1865 1866 0
202 1867 1868 0
202 1869 1870 0
202 1871 1872 0
203 1873 1874 0
203 1875 1876 0
203 1877 1878 0
203 1879 1880 0
204 1881 1882 0
204 1883 1884 0
204 1885 1886 0
204 1887 1888 0
205 1889 1890 0
205 1891 1892 0
205 1893 1894 0
205 1895 1896 0
206 1897 1898 0
206 1899 1900 0
206 1901 1902 0
206 1903 1904 0
207 1905 1906 0
207 1907 1908 0
207 1909 1910 0
207 1911 1912 0
208 1913 1914 0
208 1915 1916 0
208 1917 1918 0
208 1919 1920 0
209 1921 1922 0
209 1923 1924 0
209 1925 1926 0
209 1927 1928 0
210 1929 1930 0
210 1931 1932 0
210 1933 1934 0
210 1935 1936 0
211 1937 1938 0
211 1939 1940 0
211 1941 1942 0
211 1943 1944 0
212 1945 1946 0
212 1947 1948 0
212 1949 1950 0
212 1951 1952 0
213 1953 1954 0
213 1955 1956 0
213 1957 1958 0
213 1959 1960 0
214 1961 1962 0
214 1963 1964 0
214 1965 1966 0
214 1967 1968 0
215 1969 1970 0
215 1971 1972 0
215 1973 1974 0
215 1975 1976 0
216 1977 1978 0
216 1979 1980 0
216 1981 1982 0
216 1983 1984 0
217 1985 1986 0
217 1987 1988 0
217 1989 1990 0
217 1991 1992 0
218 1993 1994 0
218 1995 1996 0
218 1997 1998 0
218 1999 2000 0
219 2001 2002 0
219 2003 2004 0
219 2005 2006 0
219 2007 2008 0
220 2009 2010 0
220 2011 2012 0
220 2013 2014 0
220 2015 2016 0
221 2017 2018 0
221 2019 2020 0
221 2021 2022 0
221 2023 2024 0
222 2025 2026 0
222 2027 2028 0
222 2029 2030 0
222 2031 2032 0
223 2033 2034 0
223 2035 2036 0
223 2037 2038 0
223 2039 2040 0
224 2041 2042 0
224 2043 2044 0
224 2045 2046 0
224 2047 2048 0
225 2049 2050 0
225 2051 2052 0
225 2053 2054 0
225 2055 2056 0
226 2057 2058 0
226 2059 2060 0
226 2061 2062 0
226 2063 2064 0
227 2065 2066 0
227 2067 2068 0
227 2069 2070 0
227 2071 2072 0
228 2073 2074 0
228 2075 2076 0
228 2077 2078 0
228 2079 2080 0
229 2081 2082 0
229 2083 2084 0
229 2085 2086 0
229 2087 2088 0
230 2089 2090 0
230 2091 2092 0
230 2093 2094 0
230 2095 2096 0
231 2097 2098 0
231 2099 2100 0
231 2101 2102 0
231 2103 2104 0
232 2105 2106 0
232 2107 2108 0
232 2109 2110 0
232 2111 2112 0
233 2113 2114 0
233 2115 2116 0
233 2117 2118 0
233 2119 2120 0
234 2121 2122 0
234 2123 2124 0
234 2125 2126 0
234 2127 2128 0
235 2129 2130 0
235 2131 2132 0
235 2133 2134 0
235 2135 2136 0
236 2137 2138 0
236 2139 2140 0
236 2141 2142 0
236 2143 2144 0
237 2145 2146 0
237 2147 2148 0
237 2149 2150 0
237 2151 2152 0
238 2153 2154 0
238 2155 2156 0
238 2157 2158 0
238 2159 2160 0
239 2161 2162 0
239 2163 2164 0
239 2165 2166 0
239 2167 2168 0
240 2169 2170 0
240 2171 2172 0
240 2173 2174 0
240 2175 2176 0
241 2177 2178 0
241 2179 2180 0
241 2181 2182 0
241 2183 2184 0
242 2185 2186 0
242 2187 2188 0
242 2189 2190 0
242 2191 2192 0
243 2193 2194 0
243 2195 2196 0
243 2197 2198 0
243 2199 2200 0
244 2201 2202 0
244 2203 2204 0
244 2205 2206 0
244 2207 2208 0
245 2209 2210 0
245 2211 2212 0
245 2213 2214 0
245 2215 2216 0
246 2217 2218 0
246 2219 2220 0
246 2221 2222 0
246 2223 2224 0
247 2225 2226 0
247 2227 2228 0
247 2229 2230 0
247 2231 2232 0
248 2233 2234 0
248 2235 2236 0
248 2237 2238 0
248 2239 2240 0
249 2241 2242 0
249 2243 2244 0
249 2245 2246 0
249 2247 2248 0
250 2249 2250 0
250 2251 2252 0
250 2253 2254 0
250 2255 2256 0
251 2257 2258 0
251 2259 2260 0
251 2261 2262 0
251 2263 2264 0
252 2265 2266 0
252 2267 2268 0
252 2269 2270 0
252 2271 2272 0
253 2273 2274 0
253 2275 2276 0
253 2277 2278 0
253 2279 2280 0
254 2281 2282 0
254 2283 2284 0
254 2285 2286 0
254 2287 2288 0
255 2289 2290 0
255 2291 2292 0
255 2293 2294 0
255 2295 2296 0
256 2297 2298 0
256 2299 2300 0
256 2301 2302 0
256 2303 2304 0
2305 0
2306 0
