p cnf 10 40
1 -2 -3 -4 0
-1 2 -3 -4 0
-1 -2 3 -4 0
1 2 3 -4 0
-1 -2 -3 4 0
1 2 -3 4 0
1 -2 3 4 0
-1 2 3 4 0
1 -5 -6 -7 0
-1 5 -6 -7 0
-1 -5 6 -7 0
1 5 6 -7 0
-1 -5 -6 7 0
1 5 -6 7 0
1 -5 6 7 0
-1 5 6 7 0
2 -5 -8 -9 0
-2 5 -8 -9 0
-2 -5 8 -9 0
2 5 8 -9 0
-2 -5 -8 9 0
2 5 -8 9 0
2 -5 8 9 0
-2 5 8 9 0
3 -6 -8 -10 0
-3 6 -8 -10 0
-3 -6 8 -10 0
3 6 8 -10 0
-3 -6 -8 10 0
3 6 -8 10 0
3 -6 8 10 0
-3 6 8 10 0
4 -7 -9 -10 0
-4 7 -9 -10 0
-4 -7 9 -10 0
4 7 9 -10 0
-4 -7 -9 10 0
4 7 -9 10 0
4 -7 9 10 0
-4 7 9 10 0
